
780.0
630.0
630.0
930.0
900.0
900.0
630.0
630.0
630.0
630.0
630.0
630.0
630.0
630.0
900.0
630.0
630.0
630.0
900.0
840.0
870.0
870.0
630.0
630.0
630.0
930.0
630.0
630.0
630.0
810.0
630.0
1170.0
870.0
900.0
900.0
900.0
630.0
870.0
840.0
900.0